100
1000
200
0 0
-10 -38
-10 -38
-10 -38
-10 -38
-10 -38
-10 -38
-10 -38
-10 -38
-10 -38
-10 -38
-10 -38
-10 -38
-10 -38
-10 -38
-10 -38
-10 -38
-10 -38
-10 -38
-10 -38
-10 -38
40 35
40 35
40 35
40 35
40 35
40 35
40 35
40 35
40 35
40 35
40 35
40 35
40 35
40 35
40 35
40 35
40 35
40 35
40 35
40 35
-40 -13
-40 -13
-40 -13
-40 -13
-40 -13
-40 -13
-40 -13
-40 -13
-40 -13
-40 -13
-40 -13
-40 -13
-40 -13
-40 -13
-40 -13
-40 -13
-40 -13
-40 -13
-40 -13
-40 -13
-29 20
-29 20
-29 20
-29 20
-29 20
-29 20
-29 20
-29 20
-29 20
-29 20
-29 20
-29 20
-29 20
-29 20
-29 20
-29 20
-29 20
-29 20
-29 20
-29 20
-13 -10
-13 -10
-13 -10
-13 -10
-13 -10
-13 -10
-13 -10
-13 -10
-13 -10
-13 -10
-13 -10
-13 -10
-13 -10
-13 -10
-13 -10
-13 -10
-13 -10
-13 -10
-13 -10
-13 -10
18 -29
-30 36
-13 -7
30 -2
-36 18
-21 30
40 -9
8 10
11 -38
-17 -6
-5 40
-21 35
14 -10
14 13
-5 37
-13 18
27 -35
-33 8
-3 36
1 -35
18 -29
-30 36
-13 -7
30 -2
-36 18
-21 30
40 -9
8 10
11 -38
-17 -6
-5 40
-21 35
14 -10
14 13
-5 37
-13 18
27 -35
-33 8
-3 36
1 -35
18 -29
-30 36
-13 -7
30 -2
-36 18
-21 30
40 -9
8 10
11 -38
-17 -6
-5 40
-21 35
14 -10
14 13
-5 37
-13 18
27 -35
-33 8
-3 36
1 -35
18 -29
-30 36
-13 -7
30 -2
-36 18
-21 30
40 -9
8 10
11 -38
-17 -6
-5 40
-21 35
14 -10
14 13
-5 37
-13 18
27 -35
-33 8
-3 36
1 -35
18 -29
-30 36
-13 -7
30 -2
-36 18
-21 30
40 -9
8 10
11 -38
-17 -6
-5 40
-21 35
14 -10
14 13
-5 37
-13 18
27 -35
-33 8
-3 36
1 -35
0 0 
51
56
55
59
52
52
53
54
54
57
55
55
57
53
56
56
51
59
52
54
57
56
51
57
59
57
56
57
57
54
56
54
56
55
53
53
53
53
56
59
53
52
52
57
56
55
56
53
54
55
53
54
55
53
59
56
57
55
56
56
56
56
52
54
56
55
56
59
54
54
54
56
55
51
57
60
56
56
52
59
57
56
52
51
52
56
59
54
55
56
57
59
59
60
53
57
51
52
59
59
51
56
55
59
52
52
53
54
54
57
55
55
57
53
56
56
51
59
52
54
57
56
51
57
59
57
56
57
57
54
56
54
56
55
53
53
53
53
56
59
53
52
52
57
56
55
56
53
54
55
53
54
55
53
59
56
57
55
56
56
56
56
52
54
56
55
56
59
54
54
54
56
55
51
57
60
56
56
52
59
57
56
52
51
52
56
59
54
55
56
57
59
59
60
53
57
51
52
59
59
